p tw 136 20401 2 
1 3 
1 4 
1 5 
1 6 
1 7 
1 8 
1 9 
1 10 
1 11 
1 12 
1 13 
1 14 
1 15 
1 16 
1 17 
1 18 
1 19 
1 20 
1 21 
1 22 
1 23 
1 24 
1 25 
1 26 
1 27 
1 28 
1 29 
1 30 
1 31 
2 3 
2 4 
2 5 
2 6 
2 7 
2 8 
2 9 
2 10 
2 11 
2 12 
2 13 
2 14 
2 15 
2 16 
2 17 
2 32 
2 33 
2 34 
2 35 
2 36 
2 37 
2 38 
2 39 
2 40 
2 41 
2 42 
2 43 
2 44 
2 45 
3 4 
3 5 
3 6 
3 7 
3 8 
3 9 
3 10 
3 11 
3 12 
3 13 
3 14 
3 15 
3 16 
3 18 
3 32 
3 46 
3 47 
3 48 
3 49 
3 50 
3 51 
3 52 
3 53 
3 54 
3 55 
3 56 
3 57 
3 58 
4 5 
4 6 
4 7 
4 8 
4 9 
4 10 
4 11 
4 12 
4 13 
4 14 
4 15 
4 16 
4 19 
4 33 
4 46 
4 59 
4 60 
4 61 
4 62 
4 63 
4 64 
4 65 
4 66 
4 67 
4 68 
4 69 
4 70 
5 6 
5 7 
5 8 
5 9 
5 10 
5 11 
5 12 
5 13 
5 14 
5 15 
5 16 
5 20 
5 34 
5 47 
5 59 
5 71 
5 72 
5 73 
5 74 
5 75 
5 76 
5 77 
5 78 
5 79 
5 80 
5 81 
6 7 
6 8 
6 9 
6 10 
6 11 
6 12 
6 13 
6 14 
6 15 
6 16 
6 21 
6 35 
6 48 
6 60 
6 71 
6 82 
6 83 
6 84 
6 85 
6 86 
6 87 
6 88 
6 89 
6 90 
6 91 
7 8 
7 9 
7 10 
7 11 
7 12 
7 13 
7 14 
7 15 
7 16 
7 22 
7 36 
7 49 
7 61 
7 72 
7 82 
7 92 
7 93 
7 94 
7 95 
7 96 
7 97 
7 98 
7 99 
7 100 
8 9 
8 10 
8 11 
8 12 
8 13 
8 14 
8 15 
8 16 
8 23 
8 37 
8 50 
8 62 
8 73 
8 83 
8 92 
8 101 
8 102 
8 103 
8 104 
8 105 
8 106 
8 107 
8 108 
9 10 
9 11 
9 12 
9 13 
9 14 
9 15 
9 16 
9 24 
9 38 
9 51 
9 63 
9 74 
9 84 
9 93 
9 101 
9 109 
9 110 
9 111 
9 112 
9 113 
9 114 
9 115 
10 11 
10 12 
10 13 
10 14 
10 15 
10 16 
10 25 
10 39 
10 52 
10 64 
10 75 
10 85 
10 94 
10 102 
10 109 
10 116 
10 117 
10 118 
10 119 
10 120 
10 121 
11 12 
11 13 
11 14 
11 15 
11 16 
11 26 
11 40 
11 53 
11 65 
11 76 
11 86 
11 95 
11 103 
11 110 
11 116 
11 122 
11 123 
11 124 
11 125 
11 126 
12 13 
12 14 
12 15 
12 16 
12 27 
12 41 
12 54 
12 66 
12 77 
12 87 
12 96 
12 104 
12 111 
12 117 
12 122 
12 127 
12 128 
12 129 
12 130 
13 14 
13 15 
13 16 
13 28 
13 42 
13 55 
13 67 
13 78 
13 88 
13 97 
13 105 
13 112 
13 118 
13 123 
13 127 
13 131 
13 132 
13 133 
14 15 
14 16 
14 29 
14 43 
14 56 
14 68 
14 79 
14 89 
14 98 
14 106 
14 113 
14 119 
14 124 
14 128 
14 131 
14 134 
14 135 
15 16 
15 30 
15 44 
15 57 
15 69 
15 80 
15 90 
15 99 
15 107 
15 114 
15 120 
15 125 
15 129 
15 132 
15 134 
15 136 
16 31 
16 45 
16 58 
16 70 
16 81 
16 91 
16 100 
16 108 
16 115 
16 121 
16 126 
16 130 
16 133 
16 135 
16 136 
17 18 
17 19 
17 20 
17 21 
17 22 
17 23 
17 24 
17 25 
17 26 
17 27 
17 28 
17 29 
17 30 
17 31 
17 32 
17 33 
17 34 
17 35 
17 36 
17 37 
17 38 
17 39 
17 40 
17 41 
17 42 
17 43 
17 44 
17 45 
18 19 
18 20 
18 21 
18 22 
18 23 
18 24 
18 25 
18 26 
18 27 
18 28 
18 29 
18 30 
18 31 
18 32 
18 46 
18 47 
18 48 
18 49 
18 50 
18 51 
18 52 
18 53 
18 54 
18 55 
18 56 
18 57 
18 58 
19 20 
19 21 
19 22 
19 23 
19 24 
19 25 
19 26 
19 27 
19 28 
19 29 
19 30 
19 31 
19 33 
19 46 
19 59 
19 60 
19 61 
19 62 
19 63 
19 64 
19 65 
19 66 
19 67 
19 68 
19 69 
19 70 
20 21 
20 22 
20 23 
20 24 
20 25 
20 26 
20 27 
20 28 
20 29 
20 30 
20 31 
20 34 
20 47 
20 59 
20 71 
20 72 
20 73 
20 74 
20 75 
20 76 
20 77 
20 78 
20 79 
20 80 
20 81 
21 22 
21 23 
21 24 
21 25 
21 26 
21 27 
21 28 
21 29 
21 30 
21 31 
21 35 
21 48 
21 60 
21 71 
21 82 
21 83 
21 84 
21 85 
21 86 
21 87 
21 88 
21 89 
21 90 
21 91 
22 23 
22 24 
22 25 
22 26 
22 27 
22 28 
22 29 
22 30 
22 31 
22 36 
22 49 
22 61 
22 72 
22 82 
22 92 
22 93 
22 94 
22 95 
22 96 
22 97 
22 98 
22 99 
22 100 
23 24 
23 25 
23 26 
23 27 
23 28 
23 29 
23 30 
23 31 
23 37 
23 50 
23 62 
23 73 
23 83 
23 92 
23 101 
23 102 
23 103 
23 104 
23 105 
23 106 
23 107 
23 108 
24 25 
24 26 
24 27 
24 28 
24 29 
24 30 
24 31 
24 38 
24 51 
24 63 
24 74 
24 84 
24 93 
24 101 
24 109 
24 110 
24 111 
24 112 
24 113 
24 114 
24 115 
25 26 
25 27 
25 28 
25 29 
25 30 
25 31 
25 39 
25 52 
25 64 
25 75 
25 85 
25 94 
25 102 
25 109 
25 116 
25 117 
25 118 
25 119 
25 120 
25 121 
26 27 
26 28 
26 29 
26 30 
26 31 
26 40 
26 53 
26 65 
26 76 
26 86 
26 95 
26 103 
26 110 
26 116 
26 122 
26 123 
26 124 
26 125 
26 126 
27 28 
27 29 
27 30 
27 31 
27 41 
27 54 
27 66 
27 77 
27 87 
27 96 
27 104 
27 111 
27 117 
27 122 
27 127 
27 128 
27 129 
27 130 
28 29 
28 30 
28 31 
28 42 
28 55 
28 67 
28 78 
28 88 
28 97 
28 105 
28 112 
28 118 
28 123 
28 127 
28 131 
28 132 
28 133 
29 30 
29 31 
29 43 
29 56 
29 68 
29 79 
29 89 
29 98 
29 106 
29 113 
29 119 
29 124 
29 128 
29 131 
29 134 
29 135 
30 31 
30 44 
30 57 
30 69 
30 80 
30 90 
30 99 
30 107 
30 114 
30 120 
30 125 
30 129 
30 132 
30 134 
30 136 
31 45 
31 58 
31 70 
31 81 
31 91 
31 100 
31 108 
31 115 
31 121 
31 126 
31 130 
31 133 
31 135 
31 136 
32 33 
32 34 
32 35 
32 36 
32 37 
32 38 
32 39 
32 40 
32 41 
32 42 
32 43 
32 44 
32 45 
32 46 
32 47 
32 48 
32 49 
32 50 
32 51 
32 52 
32 53 
32 54 
32 55 
32 56 
32 57 
32 58 
33 34 
33 35 
33 36 
33 37 
33 38 
33 39 
33 40 
33 41 
33 42 
33 43 
33 44 
33 45 
33 46 
33 59 
33 60 
33 61 
33 62 
33 63 
33 64 
33 65 
33 66 
33 67 
33 68 
33 69 
33 70 
34 35 
34 36 
34 37 
34 38 
34 39 
34 40 
34 41 
34 42 
34 43 
34 44 
34 45 
34 47 
34 59 
34 71 
34 72 
34 73 
34 74 
34 75 
34 76 
34 77 
34 78 
34 79 
34 80 
34 81 
35 36 
35 37 
35 38 
35 39 
35 40 
35 41 
35 42 
35 43 
35 44 
35 45 
35 48 
35 60 
35 71 
35 82 
35 83 
35 84 
35 85 
35 86 
35 87 
35 88 
35 89 
35 90 
35 91 
36 37 
36 38 
36 39 
36 40 
36 41 
36 42 
36 43 
36 44 
36 45 
36 49 
36 61 
36 72 
36 82 
36 92 
36 93 
36 94 
36 95 
36 96 
36 97 
36 98 
36 99 
36 100 
37 38 
37 39 
37 40 
37 41 
37 42 
37 43 
37 44 
37 45 
37 50 
37 62 
37 73 
37 83 
37 92 
37 101 
37 102 
37 103 
37 104 
37 105 
37 106 
37 107 
37 108 
38 39 
38 40 
38 41 
38 42 
38 43 
38 44 
38 45 
38 51 
38 63 
38 74 
38 84 
38 93 
38 101 
38 109 
38 110 
38 111 
38 112 
38 113 
38 114 
38 115 
39 40 
39 41 
39 42 
39 43 
39 44 
39 45 
39 52 
39 64 
39 75 
39 85 
39 94 
39 102 
39 109 
39 116 
39 117 
39 118 
39 119 
39 120 
39 121 
40 41 
40 42 
40 43 
40 44 
40 45 
40 53 
40 65 
40 76 
40 86 
40 95 
40 103 
40 110 
40 116 
40 122 
40 123 
40 124 
40 125 
40 126 
41 42 
41 43 
41 44 
41 45 
41 54 
41 66 
41 77 
41 87 
41 96 
41 104 
41 111 
41 117 
41 122 
41 127 
41 128 
41 129 
41 130 
42 43 
42 44 
42 45 
42 55 
42 67 
42 78 
42 88 
42 97 
42 105 
42 112 
42 118 
42 123 
42 127 
42 131 
42 132 
42 133 
43 44 
43 45 
43 56 
43 68 
43 79 
43 89 
43 98 
43 106 
43 113 
43 119 
43 124 
43 128 
43 131 
43 134 
43 135 
44 45 
44 57 
44 69 
44 80 
44 90 
44 99 
44 107 
44 114 
44 120 
44 125 
44 129 
44 132 
44 134 
44 136 
45 58 
45 70 
45 81 
45 91 
45 100 
45 108 
45 115 
45 121 
45 126 
45 130 
45 133 
45 135 
45 136 
46 47 
46 48 
46 49 
46 50 
46 51 
46 52 
46 53 
46 54 
46 55 
46 56 
46 57 
46 58 
46 59 
46 60 
46 61 
46 62 
46 63 
46 64 
46 65 
46 66 
46 67 
46 68 
46 69 
46 70 
47 48 
47 49 
47 50 
47 51 
47 52 
47 53 
47 54 
47 55 
47 56 
47 57 
47 58 
47 59 
47 71 
47 72 
47 73 
47 74 
47 75 
47 76 
47 77 
47 78 
47 79 
47 80 
47 81 
48 49 
48 50 
48 51 
48 52 
48 53 
48 54 
48 55 
48 56 
48 57 
48 58 
48 60 
48 71 
48 82 
48 83 
48 84 
48 85 
48 86 
48 87 
48 88 
48 89 
48 90 
48 91 
49 50 
49 51 
49 52 
49 53 
49 54 
49 55 
49 56 
49 57 
49 58 
49 61 
49 72 
49 82 
49 92 
49 93 
49 94 
49 95 
49 96 
49 97 
49 98 
49 99 
49 100 
50 51 
50 52 
50 53 
50 54 
50 55 
50 56 
50 57 
50 58 
50 62 
50 73 
50 83 
50 92 
50 101 
50 102 
50 103 
50 104 
50 105 
50 106 
50 107 
50 108 
51 52 
51 53 
51 54 
51 55 
51 56 
51 57 
51 58 
51 63 
51 74 
51 84 
51 93 
51 101 
51 109 
51 110 
51 111 
51 112 
51 113 
51 114 
51 115 
52 53 
52 54 
52 55 
52 56 
52 57 
52 58 
52 64 
52 75 
52 85 
52 94 
52 102 
52 109 
52 116 
52 117 
52 118 
52 119 
52 120 
52 121 
53 54 
53 55 
53 56 
53 57 
53 58 
53 65 
53 76 
53 86 
53 95 
53 103 
53 110 
53 116 
53 122 
53 123 
53 124 
53 125 
53 126 
54 55 
54 56 
54 57 
54 58 
54 66 
54 77 
54 87 
54 96 
54 104 
54 111 
54 117 
54 122 
54 127 
54 128 
54 129 
54 130 
55 56 
55 57 
55 58 
55 67 
55 78 
55 88 
55 97 
55 105 
55 112 
55 118 
55 123 
55 127 
55 131 
55 132 
55 133 
56 57 
56 58 
56 68 
56 79 
56 89 
56 98 
56 106 
56 113 
56 119 
56 124 
56 128 
56 131 
56 134 
56 135 
57 58 
57 69 
57 80 
57 90 
57 99 
57 107 
57 114 
57 120 
57 125 
57 129 
57 132 
57 134 
57 136 
58 70 
58 81 
58 91 
58 100 
58 108 
58 115 
58 121 
58 126 
58 130 
58 133 
58 135 
58 136 
59 60 
59 61 
59 62 
59 63 
59 64 
59 65 
59 66 
59 67 
59 68 
59 69 
59 70 
59 71 
59 72 
59 73 
59 74 
59 75 
59 76 
59 77 
59 78 
59 79 
59 80 
59 81 
60 61 
60 62 
60 63 
60 64 
60 65 
60 66 
60 67 
60 68 
60 69 
60 70 
60 71 
60 82 
60 83 
60 84 
60 85 
60 86 
60 87 
60 88 
60 89 
60 90 
60 91 
61 62 
61 63 
61 64 
61 65 
61 66 
61 67 
61 68 
61 69 
61 70 
61 72 
61 82 
61 92 
61 93 
61 94 
61 95 
61 96 
61 97 
61 98 
61 99 
61 100 
62 63 
62 64 
62 65 
62 66 
62 67 
62 68 
62 69 
62 70 
62 73 
62 83 
62 92 
62 101 
62 102 
62 103 
62 104 
62 105 
62 106 
62 107 
62 108 
63 64 
63 65 
63 66 
63 67 
63 68 
63 69 
63 70 
63 74 
63 84 
63 93 
63 101 
63 109 
63 110 
63 111 
63 112 
63 113 
63 114 
63 115 
64 65 
64 66 
64 67 
64 68 
64 69 
64 70 
64 75 
64 85 
64 94 
64 102 
64 109 
64 116 
64 117 
64 118 
64 119 
64 120 
64 121 
65 66 
65 67 
65 68 
65 69 
65 70 
65 76 
65 86 
65 95 
65 103 
65 110 
65 116 
65 122 
65 123 
65 124 
65 125 
65 126 
66 67 
66 68 
66 69 
66 70 
66 77 
66 87 
66 96 
66 104 
66 111 
66 117 
66 122 
66 127 
66 128 
66 129 
66 130 
67 68 
67 69 
67 70 
67 78 
67 88 
67 97 
67 105 
67 112 
67 118 
67 123 
67 127 
67 131 
67 132 
67 133 
68 69 
68 70 
68 79 
68 89 
68 98 
68 106 
68 113 
68 119 
68 124 
68 128 
68 131 
68 134 
68 135 
69 70 
69 80 
69 90 
69 99 
69 107 
69 114 
69 120 
69 125 
69 129 
69 132 
69 134 
69 136 
70 81 
70 91 
70 100 
70 108 
70 115 
70 121 
70 126 
70 130 
70 133 
70 135 
70 136 
71 72 
71 73 
71 74 
71 75 
71 76 
71 77 
71 78 
71 79 
71 80 
71 81 
71 82 
71 83 
71 84 
71 85 
71 86 
71 87 
71 88 
71 89 
71 90 
71 91 
72 73 
72 74 
72 75 
72 76 
72 77 
72 78 
72 79 
72 80 
72 81 
72 82 
72 92 
72 93 
72 94 
72 95 
72 96 
72 97 
72 98 
72 99 
72 100 
73 74 
73 75 
73 76 
73 77 
73 78 
73 79 
73 80 
73 81 
73 83 
73 92 
73 101 
73 102 
73 103 
73 104 
73 105 
73 106 
73 107 
73 108 
74 75 
74 76 
74 77 
74 78 
74 79 
74 80 
74 81 
74 84 
74 93 
74 101 
74 109 
74 110 
74 111 
74 112 
74 113 
74 114 
74 115 
75 76 
75 77 
75 78 
75 79 
75 80 
75 81 
75 85 
75 94 
75 102 
75 109 
75 116 
75 117 
75 118 
75 119 
75 120 
75 121 
76 77 
76 78 
76 79 
76 80 
76 81 
76 86 
76 95 
76 103 
76 110 
76 116 
76 122 
76 123 
76 124 
76 125 
76 126 
77 78 
77 79 
77 80 
77 81 
77 87 
77 96 
77 104 
77 111 
77 117 
77 122 
77 127 
77 128 
77 129 
77 130 
78 79 
78 80 
78 81 
78 88 
78 97 
78 105 
78 112 
78 118 
78 123 
78 127 
78 131 
78 132 
78 133 
79 80 
79 81 
79 89 
79 98 
79 106 
79 113 
79 119 
79 124 
79 128 
79 131 
79 134 
79 135 
80 81 
80 90 
80 99 
80 107 
80 114 
80 120 
80 125 
80 129 
80 132 
80 134 
80 136 
81 91 
81 100 
81 108 
81 115 
81 121 
81 126 
81 130 
81 133 
81 135 
81 136 
82 83 
82 84 
82 85 
82 86 
82 87 
82 88 
82 89 
82 90 
82 91 
82 92 
82 93 
82 94 
82 95 
82 96 
82 97 
82 98 
82 99 
82 100 
83 84 
83 85 
83 86 
83 87 
83 88 
83 89 
83 90 
83 91 
83 92 
83 101 
83 102 
83 103 
83 104 
83 105 
83 106 
83 107 
83 108 
84 85 
84 86 
84 87 
84 88 
84 89 
84 90 
84 91 
84 93 
84 101 
84 109 
84 110 
84 111 
84 112 
84 113 
84 114 
84 115 
85 86 
85 87 
85 88 
85 89 
85 90 
85 91 
85 94 
85 102 
85 109 
85 116 
85 117 
85 118 
85 119 
85 120 
85 121 
86 87 
86 88 
86 89 
86 90 
86 91 
86 95 
86 103 
86 110 
86 116 
86 122 
86 123 
86 124 
86 125 
86 126 
87 88 
87 89 
87 90 
87 91 
87 96 
87 104 
87 111 
87 117 
87 122 
87 127 
87 128 
87 129 
87 130 
88 89 
88 90 
88 91 
88 97 
88 105 
88 112 
88 118 
88 123 
88 127 
88 131 
88 132 
88 133 
89 90 
89 91 
89 98 
89 106 
89 113 
89 119 
89 124 
89 128 
89 131 
89 134 
89 135 
90 91 
90 99 
90 107 
90 114 
90 120 
90 125 
90 129 
90 132 
90 134 
90 136 
91 100 
91 108 
91 115 
91 121 
91 126 
91 130 
91 133 
91 135 
91 136 
92 93 
92 94 
92 95 
92 96 
92 97 
92 98 
92 99 
92 100 
92 101 
92 102 
92 103 
92 104 
92 105 
92 106 
92 107 
92 108 
93 94 
93 95 
93 96 
93 97 
93 98 
93 99 
93 100 
93 101 
93 109 
93 110 
93 111 
93 112 
93 113 
93 114 
93 115 
94 95 
94 96 
94 97 
94 98 
94 99 
94 100 
94 102 
94 109 
94 116 
94 117 
94 118 
94 119 
94 120 
94 121 
95 96 
95 97 
95 98 
95 99 
95 100 
95 103 
95 110 
95 116 
95 122 
95 123 
95 124 
95 125 
95 126 
96 97 
96 98 
96 99 
96 100 
96 104 
96 111 
96 117 
96 122 
96 127 
96 128 
96 129 
96 130 
97 98 
97 99 
97 100 
97 105 
97 112 
97 118 
97 123 
97 127 
97 131 
97 132 
97 133 
98 99 
98 100 
98 106 
98 113 
98 119 
98 124 
98 128 
98 131 
98 134 
98 135 
99 100 
99 107 
99 114 
99 120 
99 125 
99 129 
99 132 
99 134 
99 136 
100 108 
100 115 
100 121 
100 126 
100 130 
100 133 
100 135 
100 136 
101 102 
101 103 
101 104 
101 105 
101 106 
101 107 
101 108 
101 109 
101 110 
101 111 
101 112 
101 113 
101 114 
101 115 
102 103 
102 104 
102 105 
102 106 
102 107 
102 108 
102 109 
102 116 
102 117 
102 118 
102 119 
102 120 
102 121 
103 104 
103 105 
103 106 
103 107 
103 108 
103 110 
103 116 
103 122 
103 123 
103 124 
103 125 
103 126 
104 105 
104 106 
104 107 
104 108 
104 111 
104 117 
104 122 
104 127 
104 128 
104 129 
104 130 
105 106 
105 107 
105 108 
105 112 
105 118 
105 123 
105 127 
105 131 
105 132 
105 133 
106 107 
106 108 
106 113 
106 119 
106 124 
106 128 
106 131 
106 134 
106 135 
107 108 
107 114 
107 120 
107 125 
107 129 
107 132 
107 134 
107 136 
108 115 
108 121 
108 126 
108 130 
108 133 
108 135 
108 136 
109 110 
109 111 
109 112 
109 113 
109 114 
109 115 
109 116 
109 117 
109 118 
109 119 
109 120 
109 121 
110 111 
110 112 
110 113 
110 114 
110 115 
110 116 
110 122 
110 123 
110 124 
110 125 
110 126 
111 112 
111 113 
111 114 
111 115 
111 117 
111 122 
111 127 
111 128 
111 129 
111 130 
112 113 
112 114 
112 115 
112 118 
112 123 
112 127 
112 131 
112 132 
112 133 
113 114 
113 115 
113 119 
113 124 
113 128 
113 131 
113 134 
113 135 
114 115 
114 120 
114 125 
114 129 
114 132 
114 134 
114 136 
115 121 
115 126 
115 130 
115 133 
115 135 
115 136 
116 117 
116 118 
116 119 
116 120 
116 121 
116 122 
116 123 
116 124 
116 125 
116 126 
117 118 
117 119 
117 120 
117 121 
117 122 
117 127 
117 128 
117 129 
117 130 
118 119 
118 120 
118 121 
118 123 
118 127 
118 131 
118 132 
118 133 
119 120 
119 121 
119 124 
119 128 
119 131 
119 134 
119 135 
120 121 
120 125 
120 129 
120 132 
120 134 
120 136 
121 126 
121 130 
121 133 
121 135 
121 136 
122 123 
122 124 
122 125 
122 126 
122 127 
122 128 
122 129 
122 130 
123 124 
123 125 
123 126 
123 127 
123 131 
123 132 
123 133 
124 125 
124 126 
124 128 
124 131 
124 134 
124 135 
125 126 
125 129 
125 132 
125 134 
125 136 
126 130 
126 133 
126 135 
126 136 
127 128 
127 129 
127 130 
127 131 
127 132 
127 133 
128 129 
128 130 
128 131 
128 134 
128 135 
129 130 
129 132 
129 134 
129 136 
130 133 
130 135 
130 136 
131 132 
131 133 
131 134 
131 135 
132 133 
132 134 
132 136 
133 135 
133 136 
134 135 
134 136 
135 136 
